(declare-const x1 Bool)
(declare-const x2 Bool)
(declare-const x3 Bool)
(declare-const x4 Bool)
(declare-const x5 Bool)
(declare-const x6 Bool)
(declare-const x7 Bool)
(declare-const x8 Bool)
(declare-const x9 Bool)
(declare-const x10 Bool)
(declare-const x11 Bool)
(declare-const x12 Bool)

(assert (or x1 x4))
(assert (or x1 (not x3) (not x8)))
(assert (or x1 x8 x12))
(assert (or x2 x11))
(assert (or (not x7) (not x3) x9))
(assert (or (not x7) x8 (not x9)))
(assert (or x7 x8 (not x10)))
(assert (or x7 x10 (not x12)))

(check-sat)
(get-model)